language ESSENCE' 1.0
letting w be 7
letting n be 42
letting noCrates be 1
letting noGoals be 1
letting pInit be 22
letting stps be 6
letting crates be [23]
letting goals be [26]
letting noWalls be 22
letting walls be [0, 1, 2, 3, 4, 5, 6, 7, 13, 14, 20, 21, 27, 28, 34, 35, 36, 37, 38, 39, 40, 41]